
Gurobi 10.0.3 (linux64, gurobi_cl) logging started Thu Nov  2 11:34:05 2023

Set parameter Username
Set parameter TimeLimit to value 3600
Set parameter LogFile to value "RCPSP_405.log"
Set parameter Threads to value 32
Academic license - for non-commercial use only - expires 2024-10-30
Using license file /home/jrivera6/gurobi-licenses/v1003/compute-0-39/gurobi.lic

Gurobi Optimizer version 10.0.3 build v10.0.3rc0 (linux64)
Copyright (c) 2023, Gurobi Optimization, LLC

Read MPS format model from file RCPSP_405.mps
Reading time = 0.01 seconds
RCPSP_405: 5349 rows, 2080 columns, 17994 nonzeros

CPU model: Intel(R) Xeon(R) Gold 6242 CPU @ 2.80GHz, instruction set [SSE2|AVX|AVX2|AVX512]
Thread count: 32 physical cores, 32 logical processors, using up to 32 threads

Optimize a model with 5349 rows, 2080 columns and 17994 nonzeros
Model fingerprint: 0x7c3af8be
Variable types: 32 continuous, 2048 integer (2048 binary)
Coefficient statistics:
  Matrix range     [1e+00, 2e+02]
  Objective range  [1e+00, 1e+00]
  Bounds range     [1e+00, 1e+00]
  RHS range        [1e+00, 2e+02]
Presolve removed 3913 rows and 1573 columns
Presolve time: 0.19s
Presolved: 1436 rows, 507 columns, 4388 nonzeros
Variable types: 31 continuous, 476 integer (476 binary)

Root relaxation: objective 7.400000e+01, 173 iterations, 0.00 seconds (0.00 work units)

    Nodes    |    Current Node    |     Objective Bounds      |     Work
 Expl Unexpl |  Obj  Depth IntInf | Incumbent    BestBd   Gap | It/Node Time

     0     0   74.00000    0   11          -   74.00000      -     -    0s
     0     0   74.00000    0   57          -   74.00000      -     -    0s
     0     0   74.00000    0   56          -   74.00000      -     -    0s
     0     0   75.55556    0   43          -   75.55556      -     -    0s
H    0     0                     127.0000000   75.55556  40.5%     -    0s
H    0     0                     126.0000000   75.55556  40.0%     -    0s
     0     0   75.55556    0   47  126.00000   75.55556  40.0%     -    0s
     0     0   75.55556    0   54  126.00000   75.55556  40.0%     -    0s
     0     0   75.55556    0   73  126.00000   75.55556  40.0%     -    0s
     0     0   75.70105    0   46  126.00000   75.70105  39.9%     -    1s
     0     0   75.77432    0   54  126.00000   75.77432  39.9%     -    1s
     0     0   75.84161    0   50  126.00000   75.84161  39.8%     -    1s
     0     0   75.84161    0   49  126.00000   75.84161  39.8%     -    1s
     0     0   77.04538    0   75  126.00000   77.04538  38.9%     -    1s
     0     0   77.58258    0   53  126.00000   77.58258  38.4%     -    1s
     0     0   77.58258    0   63  126.00000   77.58258  38.4%     -    1s
     0     0   78.66187    0   56  126.00000   78.66187  37.6%     -    1s
H    0     0                     124.0000000   78.66187  36.6%     -    1s
     0     0   78.66187    0   48  124.00000   78.66187  36.6%     -    1s
     0     0   78.74984    0   46  124.00000   78.74984  36.5%     -    1s
H    0     0                     109.0000000   78.74984  27.8%     -    1s
     0     0   78.74984    0   51  109.00000   78.74984  27.8%     -    1s
     0     0   78.74984    0   63  109.00000   78.74984  27.8%     -    1s
     0     0   78.74984    0   56  109.00000   78.74984  27.8%     -    1s
     0     0   79.46743    0   33  109.00000   79.46743  27.1%     -    1s
     0     0   79.46743    0   38  109.00000   79.46743  27.1%     -    1s
     0     0   79.46743    0   74  109.00000   79.46743  27.1%     -    1s
     0     0   79.46743    0   72  109.00000   79.46743  27.1%     -    1s
H    0     0                     107.0000000   79.46743  25.7%     -    1s
     0     0   79.46743    0   41  107.00000   79.46743  25.7%     -    2s
     0     0   79.46743    0   60  107.00000   79.46743  25.7%     -    2s
H    0     0                     106.0000000   79.46743  25.0%     -    2s
     0     0   79.46743    0   51  106.00000   79.46743  25.0%     -    2s
     0     0   79.46743    0   51  106.00000   79.46743  25.0%     -    2s
H    0     0                     105.0000000   79.46743  24.3%     -    2s
H    0     2                     104.0000000   79.46743  23.6%     -    2s
     0     2   79.46743    0   47  104.00000   79.46743  23.6%     -    2s
  1047   900   83.00000   37   71  104.00000   82.00000  21.2%   8.6   14s
H 1052   900                     102.0000000   82.00000  19.6%   8.6   14s
H 1059   900                      98.0000000   82.00000  16.3%   8.6   14s
  1100  1006   83.00000   38   69   98.00000   82.00000  16.3%   8.6   15s
H 1228  1006                      97.9999993   82.00000  16.3%   8.5   15s
* 2988  1633              37      97.0000000   82.00000  15.5%  10.3   17s
  4283  1708   89.00000   42   46   97.00000   82.00000  15.5%  10.8   23s
H 4312  1708                      97.0000000   82.00000  15.5%  10.9   23s
  6167  1674 infeasible   20        97.00000   82.00000  15.5%  10.4   25s
 11947   704   96.36232   20   66   97.00000   92.29508  4.85%  10.2   30s

Cutting planes:
  Gomory: 9
  Cover: 59
  Implied bound: 275
  Clique: 4
  MIR: 237
  StrongCG: 3
  Inf proof: 146
  Zero half: 2
  RLT: 93
  Relax-and-lift: 70

Explored 15207 nodes (156483 simplex iterations) in 33.33 seconds (1.50 work units)
Thread count was 32 (of 32 available processors)

Solution count 10: 97 97 98 ... 109

Optimal solution found (tolerance 1.00e-04)
Best objective 9.699999999020e+01, best bound 9.699999999020e+01, gap 0.0000%

Wrote result file 'RCPSP_405.sol'

